
c turning on binary mode checking

c parsing input formula with 7526 variables and 29158 clauses

c finished parsing, read 6935 bytes from proof file

c detected empty clause; start verification via backward checking

c 1337 of 29158 clauses in core                            

c 46 of 1542 lemmas in core using 2640 resolution steps

c 0 RAT lemmas in core; 0 redundant literals in core lemmas

s VERIFIED

c verification time: 0.059 seconds
